32	0

0	2	2	4
5	1	3
6	1	5
9	1	5
10	1	6
2	3	7	8	9
10	2	10	12
3	2	10	12
10	2	10	12
1	1	11
1	1	13
2	1	13
8	1	14
9	2	15	16
7	1	17
6	1	17
6	1	18
9	1	19
2	1	20
1	2	21	23
2	1	22
1	1	24
3	1	24
6	1	25
1	1	26
7	1	27
3	1	28
1	1	29
9	1	30
4	1	31
10	1	32
0	0
